Minimize
	value: tt

Subject to
tt + 1024 s_1_1 > 0.0
tt - t_1_1 - 1026.693562 s_1_1 + 2.693562 s_1_7 > -1023.284489
tt + 1024 s_2_1 > 0.0
tt - t_2_1 - 1027.064959 s_2_1 + 3.064959 s_2_7 > -1020.005225
tt + 1024 s_1_2 > 0.0
tt - t_1_2 - 1025.346781 s_1_2 + 1.346781 s_1_7 > -1023.302889
tt + 1024 s_2_2 > 0.0
tt - t_2_2 - 1025.532479 s_2_2 + 1.532479 s_2_7 > -1019.920758
tt + 1024 s_1_3 > 0.0
tt - t_1_3 - 1028.040343 s_1_3 + 4.040343 s_1_7 > -1023.922400
tt + 1024 s_2_3 > 0.0
tt - t_2_3 - 1028.597438 s_2_3 + 4.597438 s_2_7 > -1022.605200
tt + 1024 s_1_4 > 0.0
tt - t_1_4 - 1025.346781 s_1_4 + 1.346781 s_1_7 > -1023.881533
tt + 1024 s_2_4 > 0.0
tt - t_2_4 - 1025.532479 s_2_4 + 1.532479 s_2_7 > -1021.931654
tt + 1024 s_1_5 > 0.0
tt - t_1_5 - 1026.020172 s_1_5 + 2.020172 s_1_8 > -1023.690089
tt + 1024 s_2_5 > 0.0
tt - t_2_5 - 1026.298719 s_2_5 + 2.298719 s_2_8 > -1021.818878
tt + 1024 s_1_6 > 0.0
tt - t_1_6 - 1048.242060 s_1_6 + 24.242060 s_1_5 > -1023.960400
tt + 1024 s_2_6 > 0.0
tt - t_2_6 - 1051.584630 s_2_6 + 27.584630 s_2_5 > -1023.114250
tt + 1024 s_1_7 > 0.0
tt - t_1_7 - 1024.000000 s_1_7 > -1021.886711
tt + 1024 s_2_7 > 0.0
tt - t_2_7 - 1024.000000 s_2_7 > -1014.172755
tt + 1024 s_1_8 > 0.0
tt - t_1_8 - 1024.000000 s_1_8 > -1023.450600
tt + 1024 s_2_8 > 0.0
tt - t_2_8 - 1024.000000 s_2_8 > -1022.720056
s_1_1 + s_2_1  = 1
s_1_2 + s_2_2  = 1
s_1_3 + s_2_3  = 1
s_1_4 + s_2_4  = 1
s_1_5 + s_2_5  = 1
s_1_6 + s_2_6  = 1
s_1_7 + s_2_7  = 1
s_1_8 + s_2_8  = 1
s_1_1 + s_1_2 + 1024 r_1_1_2 >= 2
- s_1_1 - s_1_2 - 1024 r_1_1_2 >= -1025
t_1_1 - t_1_2 - 1024.000000 u_1_1_2 - 1.346781 s_1_2 + 1.346781 s_1_7 + 2048.000000 r_1_1_2 > -1023.302889
s_2_1 + s_2_2 + 1024 r_2_1_2 >= 2
- s_2_1 - s_2_2 - 1024 r_2_1_2 >= -1025
t_2_1 - t_2_2 - 1024.000000 u_2_1_2 - 1.532479 s_2_2 + 1.532479 s_2_7 + 2048.000000 r_2_1_2 > -1019.920758
s_1_1 + s_1_3 + 1024 r_1_1_3 >= 2
- s_1_1 - s_1_3 - 1024 r_1_1_3 >= -1025
t_1_1 - t_1_3 - 1024.000000 u_1_1_3 - 2.020172 s_1_3 + 2.020172 s_1_7 + 2048.000000 r_1_1_3 > -1023.922400
s_2_1 + s_2_3 + 1024 r_2_1_3 >= 2
- s_2_1 - s_2_3 - 1024 r_2_1_3 >= -1025
t_2_1 - t_2_3 - 1024.000000 u_2_1_3 - 2.298719 s_2_3 + 2.298719 s_2_7 + 2048.000000 r_2_1_3 > -1022.605200
s_1_1 + s_1_4 + 1024 r_1_1_4 >= 2
- s_1_1 - s_1_4 - 1024 r_1_1_4 >= -1025
t_1_1 - t_1_4 - 1024.000000 u_1_1_4 - 1.346781 s_1_4 + 1.346781 s_1_7 + 2048.000000 r_1_1_4 > -1023.881533
s_2_1 + s_2_4 + 1024 r_2_1_4 >= 2
- s_2_1 - s_2_4 - 1024 r_2_1_4 >= -1025
t_2_1 - t_2_4 - 1024.000000 u_2_1_4 - 1.532479 s_2_4 + 1.532479 s_2_7 + 2048.000000 r_2_1_4 > -1021.931654
s_1_1 + s_1_5 + 1024 r_1_1_5 >= 2
- s_1_1 - s_1_5 - 1024 r_1_1_5 >= -1025
t_1_1 - t_1_5 - 1024.000000 u_1_1_5 - 2.020172 s_1_5 + 2.020172 s_1_8 + 2048.000000 r_1_1_5 > -1023.690089
s_2_1 + s_2_5 + 1024 r_2_1_5 >= 2
- s_2_1 - s_2_5 - 1024 r_2_1_5 >= -1025
t_2_1 - t_2_5 - 1024.000000 u_2_1_5 - 2.298719 s_2_5 + 2.298719 s_2_8 + 2048.000000 r_2_1_5 > -1021.818878
t_1_6 - t_1_1 - 2.062292 s_1_1 + 1.346781 s_1_7 > 0.0
t_1_6 - t_2_1 - 5.527254 s_2_1 + 1.532479 s_2_7 > 0.0
t_2_6 - t_1_1 - 2.062292 s_1_1 + 1.346781 s_1_7 > 0.0
t_2_6 - t_2_1 - 5.527254 s_2_1 + 1.532479 s_2_7 > 0.0
t_1_1 - t_1_7 - 1024.000000 s_1_7 > -1021.886711
t_1_1 - t_2_7 - 1024.000000 s_2_7 > -1014.172755
t_2_1 - t_1_7 - 1024.000000 s_1_7 > -1021.886711
t_2_1 - t_2_7 - 1024.000000 s_2_7 > -1014.172755
t_1_1 - t_1_8 - 1024.000000 s_1_8 > -1023.450600
t_1_1 - t_2_8 - 1024.000000 s_2_8 > -1022.720056
t_2_1 - t_1_8 - 1024.000000 s_1_8 > -1023.450600
t_2_1 - t_2_8 - 1024.000000 s_2_8 > -1022.720056
s_1_2 + s_1_1 + 1024 r_1_1_2 >= 2
- s_1_2 - s_1_1 - 1024 r_1_1_2 >= -1025
t_1_2 - t_1_1 + 1024.000000 u_1_1_2 - 1.346781 s_1_1 + 1.346781 s_1_7 + 2048.000000 r_1_1_2 > 0.715511
s_2_2 + s_2_1 + 1024 r_2_1_2 >= 2
- s_2_2 - s_2_1 - 1024 r_2_1_2 >= -1025
t_2_2 - t_2_1 + 1024.000000 u_2_1_2 - 1.532479 s_2_1 + 1.532479 s_2_7 + 2048.000000 r_2_1_2 > 3.994775
s_1_2 + s_1_3 + 1024 r_1_2_3 >= 2
- s_1_2 - s_1_3 - 1024 r_1_2_3 >= -1025
t_1_2 - t_1_3 - 1024.000000 u_1_2_3 - 2.020172 s_1_3 + 2.020172 s_1_7 + 2048.000000 r_1_2_3 > -1023.922400
s_2_2 + s_2_3 + 1024 r_2_2_3 >= 2
- s_2_2 - s_2_3 - 1024 r_2_2_3 >= -1025
t_2_2 - t_2_3 - 1024.000000 u_2_2_3 - 2.298719 s_2_3 + 2.298719 s_2_7 + 2048.000000 r_2_2_3 > -1022.605200
s_1_2 + s_1_4 + 1024 r_1_2_4 >= 2
- s_1_2 - s_1_4 - 1024 r_1_2_4 >= -1025
t_1_2 - t_1_4 - 1024.000000 u_1_2_4 - 1.346781 s_1_4 + 1.346781 s_1_7 + 2048.000000 r_1_2_4 > -1023.881533
s_2_2 + s_2_4 + 1024 r_2_2_4 >= 2
- s_2_2 - s_2_4 - 1024 r_2_2_4 >= -1025
t_2_2 - t_2_4 - 1024.000000 u_2_2_4 - 1.532479 s_2_4 + 1.532479 s_2_7 + 2048.000000 r_2_2_4 > -1021.931654
s_1_2 + s_1_5 + 1024 r_1_2_5 >= 2
- s_1_2 - s_1_5 - 1024 r_1_2_5 >= -1025
t_1_2 - t_1_5 - 1024.000000 u_1_2_5 - 2.020172 s_1_5 + 2.020172 s_1_8 + 2048.000000 r_1_2_5 > -1023.690089
s_2_2 + s_2_5 + 1024 r_2_2_5 >= 2
- s_2_2 - s_2_5 - 1024 r_2_2_5 >= -1025
t_2_2 - t_2_5 - 1024.000000 u_2_2_5 - 2.298719 s_2_5 + 2.298719 s_2_8 + 2048.000000 r_2_2_5 > -1021.818878
t_1_6 - t_1_2 - 2.043892 s_1_2 + 1.346781 s_1_7 > 0.0
t_1_6 - t_2_2 - 5.611721 s_2_2 + 1.532479 s_2_7 > 0.0
t_2_6 - t_1_2 - 2.043892 s_1_2 + 1.346781 s_1_7 > 0.0
t_2_6 - t_2_2 - 5.611721 s_2_2 + 1.532479 s_2_7 > 0.0
t_1_2 - t_1_7 - 1024.000000 s_1_7 > -1021.886711
t_1_2 - t_2_7 - 1024.000000 s_2_7 > -1014.172755
t_2_2 - t_1_7 - 1024.000000 s_1_7 > -1021.886711
t_2_2 - t_2_7 - 1024.000000 s_2_7 > -1014.172755
s_1_2 + s_1_8 + 1024 r_1_2_8 >= 2
- s_1_2 - s_1_8 - 1024 r_1_2_8 >= -1025
t_1_2 - t_1_8 - 1024.000000 u_1_2_8 + 2048.000000 r_1_2_8 > -1023.450600
s_2_2 + s_2_8 + 1024 r_2_2_8 >= 2
- s_2_2 - s_2_8 - 1024 r_2_2_8 >= -1025
t_2_2 - t_2_8 - 1024.000000 u_2_2_8 + 2048.000000 r_2_2_8 > -1022.720056
s_1_3 + s_1_1 + 1024 r_1_1_3 >= 2
- s_1_3 - s_1_1 - 1024 r_1_1_3 >= -1025
t_1_3 - t_1_1 + 1024.000000 u_1_1_3 - 1.346781 s_1_1 + 1.346781 s_1_7 + 2048.000000 r_1_1_3 > 0.715511
s_2_3 + s_2_1 + 1024 r_2_1_3 >= 2
- s_2_3 - s_2_1 - 1024 r_2_1_3 >= -1025
t_2_3 - t_2_1 + 1024.000000 u_2_1_3 - 1.532479 s_2_1 + 1.532479 s_2_7 + 2048.000000 r_2_1_3 > 3.994775
s_1_3 + s_1_2 + 1024 r_1_2_3 >= 2
- s_1_3 - s_1_2 - 1024 r_1_2_3 >= -1025
t_1_3 - t_1_2 + 1024.000000 u_1_2_3 - 1.346781 s_1_2 + 1.346781 s_1_7 + 2048.000000 r_1_2_3 > 0.697111
s_2_3 + s_2_2 + 1024 r_2_2_3 >= 2
- s_2_3 - s_2_2 - 1024 r_2_2_3 >= -1025
t_2_3 - t_2_2 + 1024.000000 u_2_2_3 - 1.532479 s_2_2 + 1.532479 s_2_7 + 2048.000000 r_2_2_3 > 4.079242
s_1_3 + s_1_4 + 1024 r_1_3_4 >= 2
- s_1_3 - s_1_4 - 1024 r_1_3_4 >= -1025
t_1_3 - t_1_4 - 1024.000000 u_1_3_4 - 1.346781 s_1_4 + 1.346781 s_1_7 + 2048.000000 r_1_3_4 > -1023.881533
s_2_3 + s_2_4 + 1024 r_2_3_4 >= 2
- s_2_3 - s_2_4 - 1024 r_2_3_4 >= -1025
t_2_3 - t_2_4 - 1024.000000 u_2_3_4 - 1.532479 s_2_4 + 1.532479 s_2_7 + 2048.000000 r_2_3_4 > -1021.931654
s_1_3 + s_1_5 + 1024 r_1_3_5 >= 2
- s_1_3 - s_1_5 - 1024 r_1_3_5 >= -1025
t_1_3 - t_1_5 - 1024.000000 u_1_3_5 - 2.020172 s_1_5 + 2.020172 s_1_8 + 2048.000000 r_1_3_5 > -1023.690089
s_2_3 + s_2_5 + 1024 r_2_3_5 >= 2
- s_2_3 - s_2_5 - 1024 r_2_3_5 >= -1025
t_2_3 - t_2_5 - 1024.000000 u_2_3_5 - 2.298719 s_2_5 + 2.298719 s_2_8 + 2048.000000 r_2_3_5 > -1021.818878
t_1_6 - t_1_3 - 2.097772 s_1_3 + 2.020172 s_1_7 > 0.0
t_1_6 - t_2_3 - 3.693519 s_2_3 + 2.298719 s_2_7 > 0.0
t_2_6 - t_1_3 - 2.097772 s_1_3 + 2.020172 s_1_7 > 0.0
t_2_6 - t_2_3 - 3.693519 s_2_3 + 2.298719 s_2_7 > 0.0
t_1_3 - t_1_7 - 1024.000000 s_1_7 > -1021.886711
t_1_3 - t_2_7 - 1024.000000 s_2_7 > -1014.172755
t_2_3 - t_1_7 - 1024.000000 s_1_7 > -1021.886711
t_2_3 - t_2_7 - 1024.000000 s_2_7 > -1014.172755
t_1_3 - t_1_8 - 1024.000000 s_1_8 > -1023.450600
t_1_3 - t_2_8 - 1024.000000 s_2_8 > -1022.720056
t_2_3 - t_1_8 - 1024.000000 s_1_8 > -1023.450600
t_2_3 - t_2_8 - 1024.000000 s_2_8 > -1022.720056
s_1_4 + s_1_1 + 1024 r_1_1_4 >= 2
- s_1_4 - s_1_1 - 1024 r_1_1_4 >= -1025
t_1_4 - t_1_1 + 1024.000000 u_1_1_4 - 1.346781 s_1_1 + 1.346781 s_1_7 + 2048.000000 r_1_1_4 > 0.715511
s_2_4 + s_2_1 + 1024 r_2_1_4 >= 2
- s_2_4 - s_2_1 - 1024 r_2_1_4 >= -1025
t_2_4 - t_2_1 + 1024.000000 u_2_1_4 - 1.532479 s_2_1 + 1.532479 s_2_7 + 2048.000000 r_2_1_4 > 3.994775
s_1_4 + s_1_2 + 1024 r_1_2_4 >= 2
- s_1_4 - s_1_2 - 1024 r_1_2_4 >= -1025
t_1_4 - t_1_2 + 1024.000000 u_1_2_4 - 1.346781 s_1_2 + 1.346781 s_1_7 + 2048.000000 r_1_2_4 > 0.697111
s_2_4 + s_2_2 + 1024 r_2_2_4 >= 2
- s_2_4 - s_2_2 - 1024 r_2_2_4 >= -1025
t_2_4 - t_2_2 + 1024.000000 u_2_2_4 - 1.532479 s_2_2 + 1.532479 s_2_7 + 2048.000000 r_2_2_4 > 4.079242
s_1_4 + s_1_3 + 1024 r_1_3_4 >= 2
- s_1_4 - s_1_3 - 1024 r_1_3_4 >= -1025
t_1_4 - t_1_3 + 1024.000000 u_1_3_4 - 2.020172 s_1_3 + 2.020172 s_1_7 + 2048.000000 r_1_3_4 > 0.077600
s_2_4 + s_2_3 + 1024 r_2_3_4 >= 2
- s_2_4 - s_2_3 - 1024 r_2_3_4 >= -1025
t_2_4 - t_2_3 + 1024.000000 u_2_3_4 - 2.298719 s_2_3 + 2.298719 s_2_7 + 2048.000000 r_2_3_4 > 1.394800
s_1_4 + s_1_5 + 1024 r_1_4_5 >= 2
- s_1_4 - s_1_5 - 1024 r_1_4_5 >= -1025
t_1_4 - t_1_5 - 1024.000000 u_1_4_5 - 2.020172 s_1_5 + 2.020172 s_1_8 + 2048.000000 r_1_4_5 > -1023.690089
s_2_4 + s_2_5 + 1024 r_2_4_5 >= 2
- s_2_4 - s_2_5 - 1024 r_2_4_5 >= -1025
t_2_4 - t_2_5 - 1024.000000 u_2_4_5 - 2.298719 s_2_5 + 2.298719 s_2_8 + 2048.000000 r_2_4_5 > -1021.818878
t_1_6 - t_1_4 - 1.465248 s_1_4 + 1.346781 s_1_7 > 0.0
t_1_6 - t_2_4 - 3.600825 s_2_4 + 1.532479 s_2_7 > 0.0
t_2_6 - t_1_4 - 1.465248 s_1_4 + 1.346781 s_1_7 > 0.0
t_2_6 - t_2_4 - 3.600825 s_2_4 + 1.532479 s_2_7 > 0.0
t_1_4 - t_1_7 - 1024.000000 s_1_7 > -1021.886711
t_1_4 - t_2_7 - 1024.000000 s_2_7 > -1014.172755
t_2_4 - t_1_7 - 1024.000000 s_1_7 > -1021.886711
t_2_4 - t_2_7 - 1024.000000 s_2_7 > -1014.172755
s_1_4 + s_1_8 + 1024 r_1_4_8 >= 2
- s_1_4 - s_1_8 - 1024 r_1_4_8 >= -1025
t_1_4 - t_1_8 - 1024.000000 u_1_4_8 + 2048.000000 r_1_4_8 > -1023.450600
s_2_4 + s_2_8 + 1024 r_2_4_8 >= 2
- s_2_4 - s_2_8 - 1024 r_2_4_8 >= -1025
t_2_4 - t_2_8 - 1024.000000 u_2_4_8 + 2048.000000 r_2_4_8 > -1022.720056
s_1_5 + s_1_1 + 1024 r_1_1_5 >= 2
- s_1_5 - s_1_1 - 1024 r_1_1_5 >= -1025
t_1_5 - t_1_1 + 1024.000000 u_1_1_5 - 1.346781 s_1_1 + 1.346781 s_1_7 + 2048.000000 r_1_1_5 > 0.715511
s_2_5 + s_2_1 + 1024 r_2_1_5 >= 2
- s_2_5 - s_2_1 - 1024 r_2_1_5 >= -1025
t_2_5 - t_2_1 + 1024.000000 u_2_1_5 - 1.532479 s_2_1 + 1.532479 s_2_7 + 2048.000000 r_2_1_5 > 3.994775
s_1_5 + s_1_2 + 1024 r_1_2_5 >= 2
- s_1_5 - s_1_2 - 1024 r_1_2_5 >= -1025
t_1_5 - t_1_2 + 1024.000000 u_1_2_5 - 1.346781 s_1_2 + 1.346781 s_1_7 + 2048.000000 r_1_2_5 > 0.697111
s_2_5 + s_2_2 + 1024 r_2_2_5 >= 2
- s_2_5 - s_2_2 - 1024 r_2_2_5 >= -1025
t_2_5 - t_2_2 + 1024.000000 u_2_2_5 - 1.532479 s_2_2 + 1.532479 s_2_7 + 2048.000000 r_2_2_5 > 4.079242
s_1_5 + s_1_3 + 1024 r_1_3_5 >= 2
- s_1_5 - s_1_3 - 1024 r_1_3_5 >= -1025
t_1_5 - t_1_3 + 1024.000000 u_1_3_5 - 2.020172 s_1_3 + 2.020172 s_1_7 + 2048.000000 r_1_3_5 > 0.077600
s_2_5 + s_2_3 + 1024 r_2_3_5 >= 2
- s_2_5 - s_2_3 - 1024 r_2_3_5 >= -1025
t_2_5 - t_2_3 + 1024.000000 u_2_3_5 - 2.298719 s_2_3 + 2.298719 s_2_7 + 2048.000000 r_2_3_5 > 1.394800
s_1_5 + s_1_4 + 1024 r_1_4_5 >= 2
- s_1_5 - s_1_4 - 1024 r_1_4_5 >= -1025
t_1_5 - t_1_4 + 1024.000000 u_1_4_5 - 1.346781 s_1_4 + 1.346781 s_1_7 + 2048.000000 r_1_4_5 > 0.118467
s_2_5 + s_2_4 + 1024 r_2_4_5 >= 2
- s_2_5 - s_2_4 - 1024 r_2_4_5 >= -1025
t_2_5 - t_2_4 + 1024.000000 u_2_4_5 - 1.532479 s_2_4 + 1.532479 s_2_7 + 2048.000000 r_2_4_5 > 2.068346
t_1_6 - t_1_5 - 2.330083 s_1_5 + 2.020172 s_1_8 > 0.0
t_1_6 - t_2_5 - 4.479841 s_2_5 + 2.298719 s_2_8 > 0.0
t_2_6 - t_1_5 - 2.330083 s_1_5 + 2.020172 s_1_8 > 0.0
t_2_6 - t_2_5 - 4.479841 s_2_5 + 2.298719 s_2_8 > 0.0
s_1_5 + s_1_7 + 1024 r_1_5_7 >= 2
- s_1_5 - s_1_7 - 1024 r_1_5_7 >= -1025
t_1_5 - t_1_7 - 1024.000000 u_1_5_7 + 2048.000000 r_1_5_7 > -1021.886711
s_2_5 + s_2_7 + 1024 r_2_5_7 >= 2
- s_2_5 - s_2_7 - 1024 r_2_5_7 >= -1025
t_2_5 - t_2_7 - 1024.000000 u_2_5_7 + 2048.000000 r_2_5_7 > -1014.172755
t_1_5 - t_1_8 - 1024.000000 s_1_8 > -1023.450600
t_1_5 - t_2_8 - 1024.000000 s_2_8 > -1022.720056
t_2_5 - t_1_8 - 1024.000000 s_1_8 > -1023.450600
t_2_5 - t_2_8 - 1024.000000 s_2_8 > -1022.720056
t_1_6 - t_1_7 - 1024.000000 s_1_7 > -1021.886711
t_1_6 - t_2_7 - 1024.000000 s_2_7 > -1014.172755
t_2_6 - t_1_7 - 1024.000000 s_1_7 > -1021.886711
t_2_6 - t_2_7 - 1024.000000 s_2_7 > -1014.172755
s_1_7 + s_1_5 + 1024 r_1_5_7 >= 2
- s_1_7 - s_1_5 - 1024 r_1_5_7 >= -1025
t_1_7 - t_1_5 + 1024.000000 u_1_5_7 - 2.020172 s_1_5 + 2.020172 s_1_8 + 2048.000000 r_1_5_7 > 0.309911
s_2_7 + s_2_5 + 1024 r_2_5_7 >= 2
- s_2_7 - s_2_5 - 1024 r_2_5_7 >= -1025
t_2_7 - t_2_5 + 1024.000000 u_2_5_7 - 2.298719 s_2_5 + 2.298719 s_2_8 + 2048.000000 r_2_5_7 > 2.181122
s_1_7 + s_1_8 + 1024 r_1_7_8 >= 2
- s_1_7 - s_1_8 - 1024 r_1_7_8 >= -1025
t_1_7 - t_1_8 - 1024.000000 u_1_7_8 + 2048.000000 r_1_7_8 > -1023.450600
s_2_7 + s_2_8 + 1024 r_2_7_8 >= 2
- s_2_7 - s_2_8 - 1024 r_2_7_8 >= -1025
t_2_7 - t_2_8 - 1024.000000 u_2_7_8 + 2048.000000 r_2_7_8 > -1022.720056
s_1_8 + s_1_2 + 1024 r_1_2_8 >= 2
- s_1_8 - s_1_2 - 1024 r_1_2_8 >= -1025
t_1_8 - t_1_2 + 1024.000000 u_1_2_8 - 1.346781 s_1_2 + 1.346781 s_1_7 + 2048.000000 r_1_2_8 > 0.697111
s_2_8 + s_2_2 + 1024 r_2_2_8 >= 2
- s_2_8 - s_2_2 - 1024 r_2_2_8 >= -1025
t_2_8 - t_2_2 + 1024.000000 u_2_2_8 - 1.532479 s_2_2 + 1.532479 s_2_7 + 2048.000000 r_2_2_8 > 4.079242
s_1_8 + s_1_4 + 1024 r_1_4_8 >= 2
- s_1_8 - s_1_4 - 1024 r_1_4_8 >= -1025
t_1_8 - t_1_4 + 1024.000000 u_1_4_8 - 1.346781 s_1_4 + 1.346781 s_1_7 + 2048.000000 r_1_4_8 > 0.118467
s_2_8 + s_2_4 + 1024 r_2_4_8 >= 2
- s_2_8 - s_2_4 - 1024 r_2_4_8 >= -1025
t_2_8 - t_2_4 + 1024.000000 u_2_4_8 - 1.532479 s_2_4 + 1.532479 s_2_7 + 2048.000000 r_2_4_8 > 2.068346
s_1_8 + s_1_7 + 1024 r_1_7_8 >= 2
- s_1_8 - s_1_7 - 1024 r_1_7_8 >= -1025
t_1_8 - t_1_7 + 1024.000000 u_1_7_8 + 2048.000000 r_1_7_8 > 2.113289
s_2_8 + s_2_7 + 1024 r_2_7_8 >= 2
- s_2_8 - s_2_7 - 1024 r_2_7_8 >= -1025
t_2_8 - t_2_7 + 1024.000000 u_2_7_8 + 2048.000000 r_2_7_8 > 9.827245
Binary
s_1_1
s_2_1
s_1_2
s_2_2
s_1_3
s_2_3
s_1_4
s_2_4
s_1_5
s_2_5
s_1_6
s_2_6
s_1_7
s_2_7
s_1_8
s_2_8
u_1_1_2
r_1_1_2
u_2_1_2
r_2_1_2
u_1_1_3
r_1_1_3
u_2_1_3
r_2_1_3
u_1_1_4
r_1_1_4
u_2_1_4
r_2_1_4
u_1_1_5
r_1_1_5
u_2_1_5
r_2_1_5
u_1_2_3
r_1_2_3
u_2_2_3
r_2_2_3
u_1_2_4
r_1_2_4
u_2_2_4
r_2_2_4
u_1_2_5
r_1_2_5
u_2_2_5
r_2_2_5
u_1_2_8
r_1_2_8
u_2_2_8
r_2_2_8
u_1_3_4
r_1_3_4
u_2_3_4
r_2_3_4
u_1_3_5
r_1_3_5
u_2_3_5
r_2_3_5
u_1_4_5
r_1_4_5
u_2_4_5
r_2_4_5
u_1_4_8
r_1_4_8
u_2_4_8
r_2_4_8
u_1_5_7
r_1_5_7
u_2_5_7
r_2_5_7
u_1_7_8
r_1_7_8
u_2_7_8
r_2_7_8

End
